c 4x4
p cnf 16 144
1 2 5 0
-1 -2 5 0
-1 2 -5 0
1 -2 -5 0
1 2 3 6 0
-1 -2 3 6 0
-1 2 -3 6 0
-1 2 3 -6 0
1 -2 -3 6 0
1 -2 3 -6 0
1 2 -3 -6 0
-1 -2 -3 -6 0
2 3 4 7 0
-2 -3 4 7 0
-2 3 -4 7 0
-2 3 4 -7 0
2 -3 -4 7 0
2 -3 4 -7 0
2 3 -4 -7 0
-2 -3 -4 -7 0
3 4 8 0
-3 -4 8 0
-3 4 -8 0
3 -4 -8 0
1 5 6 9 0
-1 -5 6 9 0
-1 5 -6 9 0
-1 5 6 -9 0
1 -5 -6 9 0
1 -5 6 -9 0
1 5 -6 -9 0
-1 -5 -6 -9 0
2 5 6 7 10 0
-2 -5 6 7 10 0
-2 5 -6 7 10 0
-2 5 6 -7 10 0
-2 5 6 7 -10 0
2 -5 -6 7 10 0
2 -5 6 -7 10 0
2 -5 6 7 -10 0
2 5 -6 -7 10 0
2 5 -6 7 -10 0
2 5 6 -7 -10 0
-2 -5 -6 -7 10 0
-2 -5 -6 7 -10 0
-2 -5 6 -7 -10 0
-2 5 -6 -7 -10 0
2 -5 -6 -7 -10 0
3 6 7 8 11 0
-3 -6 7 8 11 0
-3 6 -7 8 11 0
-3 6 7 -8 11 0
-3 6 7 8 -11 0
3 -6 -7 8 11 0
3 -6 7 -8 11 0
3 -6 7 8 -11 0
3 6 -7 -8 11 0
3 6 -7 8 -11 0
3 6 7 -8 -11 0
-3 -6 -7 -8 11 0
-3 -6 -7 8 -11 0
-3 -6 7 -8 -11 0
-3 6 -7 -8 -11 0
3 -6 -7 -8 -11 0
4 7 8 12 0
-4 -7 8 12 0
-4 7 -8 12 0
-4 7 8 -12 0
4 -7 -8 12 0
4 -7 8 -12 0
4 7 -8 -12 0
-4 -7 -8 -12 0
5 9 10 13 0
-5 -9 10 13 0
-5 9 -10 13 0
-5 9 10 -13 0
5 -9 -10 13 0
5 -9 10 -13 0
5 9 -10 -13 0
-5 -9 -10 -13 0
6 9 10 11 14 0
-6 -9 10 11 14 0
-6 9 -10 11 14 0
-6 9 10 -11 14 0
-6 9 10 11 -14 0
6 -9 -10 11 14 0
6 -9 10 -11 14 0
6 -9 10 11 -14 0
6 9 -10 -11 14 0
6 9 -10 11 -14 0
6 9 10 -11 -14 0
-6 -9 -10 -11 14 0
-6 -9 -10 11 -14 0
-6 -9 10 -11 -14 0
-6 9 -10 -11 -14 0
6 -9 -10 -11 -14 0
7 10 11 12 15 0
-7 -10 11 12 15 0
-7 10 -11 12 15 0
-7 10 11 -12 15 0
-7 10 11 12 -15 0
7 -10 -11 12 15 0
7 -10 11 -12 15 0
7 -10 11 12 -15 0
7 10 -11 -12 15 0
7 10 -11 12 -15 0
7 10 11 -12 -15 0
-7 -10 -11 -12 15 0
-7 -10 -11 12 -15 0
-7 -10 11 -12 -15 0
-7 10 -11 -12 -15 0
7 -10 -11 -12 -15 0
8 11 12 16 0
-8 -11 12 16 0
-8 11 -12 16 0
-8 11 12 -16 0
8 -11 -12 16 0
8 -11 12 -16 0
8 11 -12 -16 0
-8 -11 -12 -16 0
9 13 14 0
-9 -13 14 0
-9 13 -14 0
9 -13 -14 0
10 13 14 15 0
-10 -13 14 15 0
-10 13 -14 15 0
-10 13 14 -15 0
10 -13 -14 15 0
10 -13 14 -15 0
10 13 -14 -15 0
-10 -13 -14 -15 0
11 14 15 16 0
-11 -14 15 16 0
-11 14 -15 16 0
-11 14 15 -16 0
11 -14 -15 16 0
11 -14 15 -16 0
11 14 -15 -16 0
-11 -14 -15 -16 0
12 15 16 0
-12 -15 16 0
-12 15 -16 0
12 -15 -16 0
